c FILE /home/rafael/Documents/HappySet/MIHS/inputs/happygen/output/graph_d_regular_k5_p0.5_v100_20241127_084051.txt
c SOURCE This is a d-regular graph formed for the happy graph colouring problem.
c DESCRIPTION It was generated using the problem generator of Rhyd Lewis
c
c GRAPH STATS
c Seed                             = -1301016935
c Number of Nodes                  = 100
c Number of colours k              = 5
c Number of pre-assignments        = 50
c Degree of all vertices           = 6
c Density                          = 0.0606061
c 
c The degrees of nodes 1 to 100, respectively, are as follows 
c [6, 6, 6, 6, 6, 6, 6, 6, 6, 6, 6, 6, 6, 6, 6, 6, 6, 6, 6, 6, 6, 6, 6, 6, 6, 6, 
c  6, 6, 6, 6, 6, 6, 6, 6, 6, 6, 6, 6, 6, 6, 6, 6, 6, 6, 6, 6, 6, 6, 6, 6, 6, 
c  6, 6, 6, 6, 6, 6, 6, 6, 6, 6, 6, 6, 6, 6, 6, 6, 6, 6, 6, 6, 6, 6, 6, 6, 6, 
c  6, 6, 6, 6, 6, 6, 6, 6, 6, 6, 6, 6, 6, 6, 6, 6, 6, 6, 6, 6, 6, 6, 6, 6] 
c  
p edge 100 300 5
e 1 2
e 1 5
e 1 20
e 1 67
e 1 88
e 1 97
e 2 15
e 2 25
e 2 42
e 2 62
e 2 67
e 3 43
e 3 60
e 3 69
e 3 75
e 3 80
e 3 88
e 4 15
e 4 19
e 4 21
e 4 28
e 4 62
e 4 64
e 5 14
e 5 20
e 5 46
e 5 59
e 5 80
e 6 18
e 6 21
e 6 27
e 6 44
e 6 48
e 6 70
e 7 17
e 7 34
e 7 40
e 7 45
e 7 52
e 7 84
e 8 32
e 8 38
e 8 39
e 8 51
e 8 57
e 8 74
e 9 13
e 9 18
e 9 25
e 9 30
e 9 94
e 9 96
e 10 21
e 10 30
e 10 69
e 10 85
e 10 86
e 10 93
e 11 17
e 11 25
e 11 28
e 11 32
e 11 40
e 11 74
e 12 16
e 12 23
e 12 52
e 12 63
e 12 67
e 12 81
e 13 37
e 13 58
e 13 73
e 13 83
e 13 88
e 14 60
e 14 71
e 14 77
e 14 83
e 14 96
e 15 29
e 15 31
e 15 80
e 15 100
e 16 24
e 16 43
e 16 51
e 16 70
e 16 74
e 17 24
e 17 62
e 17 77
e 17 82
e 18 21
e 18 46
e 18 56
e 18 66
e 19 27
e 19 36
e 19 50
e 19 84
e 19 95
e 20 30
e 20 59
e 20 89
e 20 98
e 21 74
e 21 99
e 22 30
e 22 35
e 22 38
e 22 57
e 22 59
e 22 80
e 23 43
e 23 58
e 23 73
e 23 95
e 23 97
e 24 32
e 24 40
e 24 44
e 24 73
e 25 45
e 25 83
e 25 93
e 26 27
e 26 29
e 26 41
e 26 44
e 26 77
e 26 88
e 27 33
e 27 42
e 27 50
e 28 36
e 28 44
e 28 76
e 28 94
e 29 69
e 29 78
e 29 82
e 29 92
e 30 96
e 30 100
e 31 58
e 31 79
e 31 85
e 31 98
e 31 99
e 32 41
e 32 53
e 32 68
e 33 50
e 33 53
e 33 61
e 33 71
e 33 99
e 34 47
e 34 48
e 34 58
e 34 78
e 34 86
e 35 36
e 35 42
e 35 52
e 35 72
e 35 79
e 36 56
e 36 76
e 36 92
e 37 60
e 37 77
e 37 83
e 37 90
e 37 91
e 38 46
e 38 52
e 38 60
e 38 73
e 39 40
e 39 76
e 39 79
e 39 81
e 39 85
e 40 70
e 40 87
e 41 53
e 41 66
e 41 67
e 41 82
e 42 61
e 42 72
e 42 100
e 43 57
e 43 76
e 43 80
e 44 49
e 44 93
e 45 46
e 45 60
e 45 61
e 45 73
e 46 58
e 46 92
e 47 51
e 47 87
e 47 90
e 47 91
e 47 93
e 48 51
e 48 63
e 48 68
e 48 97
e 49 56
e 49 65
e 49 86
e 49 92
e 49 96
e 50 63
e 50 65
e 50 100
e 51 81
e 51 91
e 52 59
e 52 77
e 53 78
e 53 84
e 53 85
e 54 60
e 54 62
e 54 67
e 54 68
e 54 90
e 54 99
e 55 61
e 55 65
e 55 72
e 55 84
e 55 86
e 55 92
e 56 62
e 56 63
e 56 90
e 57 69
e 57 86
e 57 88
e 58 86
e 59 89
e 59 95
e 61 83
e 61 85
e 62 64
e 63 73
e 63 90
e 64 67
e 64 68
e 64 70
e 64 71
e 65 68
e 65 75
e 65 76
e 66 72
e 66 74
e 66 95
e 66 99
e 68 78
e 69 82
e 69 94
e 70 79
e 70 95
e 71 75
e 71 78
e 71 87
e 72 79
e 72 87
e 74 100
e 75 80
e 75 87
e 75 89
e 76 84
e 77 98
e 78 97
e 79 99
e 81 85
e 81 93
e 81 94
e 82 97
e 82 100
e 83 94
e 84 97
e 87 91
e 88 98
e 89 90
e 89 95
e 89 98
e 91 92
e 91 96
e 93 98
e 94 96
n 2 2
n 3 2
n 5 2
n 6 4
n 8 2
n 12 2
n 13 5
n 17 2
n 18 4
n 19 4
n 20 2
n 21 4
n 22 2
n 24 2
n 26 5
n 28 1
n 32 2
n 33 4
n 38 2
n 43 2
n 45 3
n 47 2
n 49 1
n 51 2
n 52 2
n 54 2
n 58 5
n 62 2
n 63 2
n 65 1
n 66 4
n 67 2
n 69 2
n 70 4
n 71 4
n 72 4
n 78 4
n 79 4
n 80 2
n 83 5
n 84 4
n 85 1
n 90 2
n 92 1
n 93 2
n 95 4
n 96 1
n 97 4
n 98 2
n 100 5
